results_rootrelaxation/bin018_070_006.srr.sol
solution status: optimal solution found
objective value:                                    3
_var2790_                           0.161720588725469 	(obj:0)
_var2896_                          0.0287414034044872 	(obj:0)
_var3001_                          0.0551603452860499 	(obj:0)
_var3012_                           0.169638064487466 	(obj:0)
_var3018_                           0.019812470432512 	(obj:0)
_var3051_                          0.0389290645325759 	(obj:0)
_var3061_                          0.0541326070498456 	(obj:0)
_var3076_                          0.0237895010987629 	(obj:0)
_var3097_                           0.077457573309736 	(obj:0)
_var3104_                          0.0199494237144752 	(obj:0)
_var3117_                          0.0790250684985824 	(obj:0)
_var3143_                          0.0767941983511123 	(obj:1)
_var3155_                          0.0347987238984507 	(obj:0)
_var3165_                           0.133972445316453 	(obj:0)
_var3168_                           0.139294307409205 	(obj:0)
_var3192_                          0.0380267956590044 	(obj:0)
_var3204_                          0.0316097013471195 	(obj:0)
_var3208_                           0.311568394816509 	(obj:0)
_var3214_                          0.0228028014059958 	(obj:0)
_var3215_                          0.0122694255426905 	(obj:0)
_var3217_                           0.209093302210738 	(obj:0)
_var3221_                          0.0766715088953357 	(obj:0)
_var3228_                           0.288659382621845 	(obj:1)
_var3244_                           0.143170061615397 	(obj:1)
_var3253_                           0.046137449726115 	(obj:0)
_var3256_                           0.211008133343755 	(obj:0)
_var3257_                           0.167553270359636 	(obj:0)
_var3263_                           0.500372406210423 	(obj:0)
_var3264_                          0.0253652322880996 	(obj:0)
_var3267_                         0.00278101691616076 	(obj:0)
_var3273_                          0.0316968392633488 	(obj:0)
_var3281_                           0.421603393617779 	(obj:0)
_var3283_                          0.0922696222936055 	(obj:0)
_var3291_                          0.0680343010788627 	(obj:1)
_var3302_                           0.207361703616796 	(obj:0)
_var3309_                         0.00293357134314438 	(obj:0)
_var3314_                           0.362188148556893 	(obj:0)
_var3323_                          0.0311309568938644 	(obj:0)
_var3325_                           0.148162008861526 	(obj:0)
_var3326_                         0.00344800740580464 	(obj:0)
_var3328_                          0.0818332809495127 	(obj:0)
_var3337_                           0.243816641296705 	(obj:0)
_var3339_                           0.155919197519503 	(obj:1)
_var3343_                           0.170959305530056 	(obj:0)
_var3357_                            0.23002456622131 	(obj:0)
_var3358_                           0.095201464591474 	(obj:0)
_var3359_                          0.0367408323372587 	(obj:1)
_var3360_                          0.0248882457181299 	(obj:0)
_var3362_                           0.286308125722001 	(obj:0)
_var3365_                          0.0198037140617197 	(obj:0)
_var3366_                          0.0993545560933425 	(obj:0)
_var3368_                          0.0184673763655856 	(obj:0)
_var3371_                           0.117295600362059 	(obj:0)
_var3372_                           0.143170061615397 	(obj:0)
_var3375_                          0.0217761785298194 	(obj:0)
_var3379_                           0.316916227738759 	(obj:0)
_var3384_                          0.0480058810412603 	(obj:0)
_var3387_                           0.306166240193908 	(obj:0)
_var3390_                          0.0228856184204752 	(obj:1)
_var3391_                           0.243142061719387 	(obj:0)
_var3392_                           0.014895853370116 	(obj:0)
_var3394_                          0.0979438771196151 	(obj:0)
_var3396_                           0.129201393326193 	(obj:0)
_var3398_                          0.0769213992317042 	(obj:1)
_var3402_                           0.157808440959924 	(obj:0)
_var3412_                           0.195193854553509 	(obj:0)
_var3413_                         0.00179141474780234 	(obj:0)
_var3418_                          0.0449562813673382 	(obj:1)
_var3419_                           0.015702196395567 	(obj:0)
_var3420_                         0.00882503146163081 	(obj:1)
_var3423_                          0.0783894473977811 	(obj:0)
_var3425_                           0.223527980890213 	(obj:0)
_var3426_                           0.184617204813248 	(obj:0)
_var3427_                          0.0806174798885606 	(obj:1)
_var3428_                           0.098120324665727 	(obj:0)
_var3434_                           0.115625105297793 	(obj:0)
_var3435_                           0.276509227486085 	(obj:0)
_var3436_                           0.101404656229368 	(obj:0)
_var3439_                           0.137382653686548 	(obj:0)
_var3440_                           0.120010320893057 	(obj:0)
_var3441_                          0.0159624005565754 	(obj:0)
_var3445_                          0.0602103141508684 	(obj:0)
_var3454_                           0.218794456931402 	(obj:0)
_var3455_                          0.0879837247933379 	(obj:0)
_var3456_                           0.134839300150754 	(obj:0)
_var3458_                           0.198036321303931 	(obj:0)
_var3460_                           0.194214449218215 	(obj:0)
_var3461_                           0.023978404837854 	(obj:1)
_var3472_                          0.0405557870439615 	(obj:0)
_var3473_                          0.0656594407251666 	(obj:0)
_var3478_                         0.00164880358981583 	(obj:0)
_var3479_                           0.205923010736731 	(obj:0)
_var3480_                           0.123819327809927 	(obj:0)
_var3482_                           0.352766902247855 	(obj:1)
_var3483_                           0.111725590864508 	(obj:1)
_var3484_                          0.0342795801900291 	(obj:0)
_var3486_                          0.0110483163374965 	(obj:0)
_var3487_                           0.179717206552753 	(obj:0)
_var3489_                          0.0241158560573816 	(obj:0)
_var3491_                           0.264921105508683 	(obj:0)
_var3492_                           0.307961964376054 	(obj:0)
_var3496_                           0.249956548381116 	(obj:0)
_var3499_                           0.416079311343411 	(obj:0)
_var3500_                           0.130417703147925 	(obj:1)
_var3502_                           0.117635731170965 	(obj:0)
_var3503_                           0.129048201860671 	(obj:0)
_var3504_                          0.0357967787501379 	(obj:1)
_var3505_                          0.0121115533079843 	(obj:0)
_var3507_                           0.113489890144789 	(obj:0)
_var3508_                           0.100310835546693 	(obj:0)
_var3509_                          0.0730582033549004 	(obj:1)
_var3511_                           0.148574382701672 	(obj:0)
_var3517_                          0.0975322297997793 	(obj:1)
_var3520_                           0.292718075066265 	(obj:1)
_var3524_                           0.149648210427391 	(obj:0)
_var3526_                          0.0635623003200158 	(obj:1)
_var3527_                           0.070812327356353 	(obj:0)
_var3528_                          0.0230426784497905 	(obj:0)
_var3529_                           0.418516751433561 	(obj:0)
_var3531_                           0.210587509163867 	(obj:1)
_var3532_                          0.0779221081486085 	(obj:0)
_var3533_                           0.087983724793338 	(obj:0)
_var3536_                          0.0918582473010455 	(obj:0)
_var3539_                           0.352766902247855 	(obj:0)
_var3540_                           0.082478304424877 	(obj:0)
_var3541_                          0.0313041830546603 	(obj:0)
_var3543_                           0.132901602090997 	(obj:0)
_var3547_                          0.0410118273802642 	(obj:1)
_var3548_                           0.105227456345079 	(obj:0)
_var3549_                          0.0591607398228506 	(obj:0)
_var3551_                           0.217949495983126 	(obj:2)
_var3552_                          0.0102979476260354 	(obj:0)
_var3553_                           0.119994964738145 	(obj:0)
_var3554_                          0.0104309032052955 	(obj:0)
_var3555_                           0.127421699206689 	(obj:1)
_var3557_                          0.0422450816590002 	(obj:0)
_var3560_                          0.0297123920575484 	(obj:0)
_var3561_                          0.0541518321438412 	(obj:0)
_var3564_                          0.0446049675685433 	(obj:0)
_var3565_                          0.0536034573111095 	(obj:0)
_var3566_                         0.00883991388526856 	(obj:0)
_var3569_                          0.0492687022561376 	(obj:0)
_var3570_                         0.00856276949282964 	(obj:0)
_var3571_                           0.110347705179744 	(obj:0)
_var3572_                          0.0974220089782098 	(obj:0)
_var3573_                          0.0236529560213125 	(obj:0)
_var3575_                         0.00656408015192598 	(obj:0)
